12 9
51 13
15 18 1 4
15 20 3 4
20 6 1 3
5 10 2 3
13 5 3 3
17 7 2 4
2 14 3 1
10 16 2 5
13 13 3 1
19 11 2 2
8 1 2 1
4 20 1 3
8 8 1 3
13 1 2 4
14 16 2 3
9 18 3 3
1 1 3 3
18 9 3 1
11 0 2 5
12 10 2 2
19 15 1 4
13 8 3 5
13 9 3 5
10 0 1 2
2 1 2 2
8 2 2 5
2 1 2 2
14 20 3 4
3 0 1 5
11 20 3 2
4 20 3 2
17 4 2 4
3 11 1 3
16 5 1 5
18 0 1 5
6 15 3 2
11 20 1 3
7 11 2 1
2 3 1 3
18 12 3 5
5 9 3 4
6 11 1 2
10 18 1 5
14 4 3 3
1 1 3 4
15 16 2 4
10 13 2 4
17 8 2 3
20 17 2 3
11 10 3 1
4 12 1 4
